c 10_3_checker_6cl.cnf
c
c field = 10
c formula set type = 3_checker_6cl
c
p cnf 6 16
12 
14 
16 
-11 
-8 
-20 
13 
15 
17 
-10 
-9 
-21 
12 
14 
16 
-21 
-10 
-22 
13 
15 
17 
-20 
-11 
-23 
14 
16 
20 
-13 
-10 
-22 
15 
17 
21 
-12 
-11 
-23 
14 
16 
20 
-23 
-12 
-24 
15 
17 
21 
-22 
-13 
-25 
16 
20 
22 
-15 
-12 
-24 
17 
21 
23 
-14 
-13 
-25 
16 
20 
22 
-25 
-14 
-26 
17 
21 
23 
-24 
-15 
-27 
20 
22 
24 
-17 
-14 
-26 
21 
23 
25 
-16 
-15 
-27 
20 
22 
24 
-27 
-16 
-28 
21 
23 
25 
-26 
-17 
-29 
